SDVRP instances/custom_instances/p01_10_split0.vrp
NAME:p01_10_split
BEST_KNOWN: 0
COMMENT: 0
DIMENSION: 227
CAPACITY: 160
EDGE_WEIGHT_FORMAT: FUNCTION
EDGE_WEIGHT_TYPE: EXACT_2D
NODE_COORD_SECTION
1 0.00000 0.00000
2 -34 6
3 -34 6
4 -34 6
5 -34 6
6 -12 46
7 -12 46
8 -12 46
9 7 37
10 7 37
11 7 37
12 7 37
13 7 37
14 7 37
15 -22 11
16 -22 11
17 -22 11
18 -22 11
19 30 43
20 30 43
21 30 43
22 30 43
23 30 43
24 30 43
25 18 -6
26 18 -6
27 18 -6
28 18 -6
29 18 -6
30 18 -6
31 18 -6
32 16 -19
33 16 -19
34 16 -19
35 16 -19
36 16 -19
37 16 -19
38 1 -37
39 1 -37
40 1 -37
41 1 -37
42 1 -37
43 1 -37
44 -41 -24
45 -41 -24
46 -41 -24
47 -41 -24
48 -41 -24
49 -41 -24
50 46 -40
51 46 -40
52 46 -40
53 46 -40
54 42 28
55 42 28
56 42 28
57 42 28
58 42 28
59 42 28
60 42 28
61 -39 -46
62 -39 -46
63 -39 -46
64 -39 -46
65 12 -9
66 12 -9
67 12 -9
68 12 -9
69 12 -9
70 -10 -17
71 -10 -17
72 -10 -17
73 14 15
74 14 15
75 14 15
76 14 15
77 14 15
78 14 15
79 14 15
80 -19 -28
81 -19 -28
82 -19 -28
83 -19 -28
84 -19 -28
85 -19 -28
86 2 -24
87 2 -24
88 2 -24
89 2 -24
90 2 -24
91 2 -24
92 2 -24
93 -13 30
94 -13 30
95 -13 30
96 -13 30
97 -13 30
98 6 -48
99 6 -48
100 44 -35
101 44 -35
102 44 -35
103 37 2
104 37 2
105 13 7
106 13 7
107 -19 -40
108 -19 -40
109 -19 -40
110 -19 -40
111 -19 -40
112 -44 29
113 -44 29
114 -44 29
115 -44 29
116 -44 29
117 -36 38
118 -36 38
119 -36 38
120 -36 38
121 -36 38
122 -36 38
123 4 -14
124 4 -14
125 4 -14
126 4 -14
127 45 33
128 45 33
129 45 33
130 45 33
131 -49 39
132 -49 39
133 -49 39
134 -49 39
135 -49 39
136 -18 34
137 -18 34
138 -27 -45
139 -27 -45
140 -27 -45
141 -50 17
142 -50 17
143 -50 17
144 -50 17
145 -50 17
146 50 -47
147 50 -47
148 50 -47
149 50 -47
150 50 -47
151 5 9
152 5 9
153 -3 40
154 -3 40
155 -3 40
156 -3 40
157 -3 40
158 -3 40
159 17 11
160 17 11
161 17 11
162 17 11
163 17 11
164 31 -15
165 31 -15
166 31 -15
167 -27 45
168 -27 45
169 -27 45
170 -27 45
171 23 44
172 23 44
173 23 44
174 23 44
175 23 44
176 18 36
177 18 36
178 18 36
179 18 36
180 18 36
181 18 36
182 -34 -20
183 -34 -20
184 -34 -20
185 -34 -20
186 48 -38
187 48 -38
188 48 -38
189 48 -38
190 -20 -17
191 -20 -17
192 -20 -17
193 37 44
194 37 44
195 37 44
196 37 44
197 37 44
198 -2 38
199 -2 38
200 -2 38
201 -2 38
202 35 -27
203 35 -27
204 35 -27
205 35 -27
206 35 -27
207 35 -27
208 -33 35
209 -33 35
210 -33 35
211 42 11
212 42 11
213 42 11
214 -42 42
215 -42 42
216 -42 42
217 -42 42
218 -42 42
219 6 29
220 6 29
221 6 29
222 6 29
223 -21 8
224 -21 8
225 -21 8
226 -21 8
227 -21 8
DEMAND_SECTION
1 0
2 16
3 2
4 2
5 1
6 32
7 2
8 2
9 32
10 16
11 8
12 2
13 2
14 2
15 32
16 32
17 8
18 2
19 32
20 32
21 8
22 2
23 2
24 1
25 32
26 32
27 8
28 2
29 2
30 2
31 1
32 32
33 32
34 8
35 2
36 2
37 2
38 32
39 32
40 2
41 2
42 2
43 1
44 32
45 8
46 2
47 2
48 2
49 1
50 16
51 2
52 2
53 1
54 32
55 32
56 8
57 2
58 2
59 2
60 1
61 32
62 16
63 8
64 1
65 32
66 32
67 8
68 2
69 2
70 32
71 8
72 1
73 32
74 16
75 8
76 2
77 2
78 2
79 1
80 32
81 32
82 2
83 2
84 2
85 1
86 32
87 32
88 8
89 2
90 2
91 2
92 1
93 32
94 16
95 8
96 2
97 2
98 32
99 2
100 16
101 8
102 1
103 32
104 2
105 32
106 32
107 32
108 2
109 2
110 2
111 1
112 32
113 8
114 2
115 2
116 2
117 32
118 32
119 8
120 2
121 2
122 1
123 32
124 32
125 8
126 2
127 32
128 16
129 2
130 2
131 32
132 32
133 2
134 2
135 2
136 32
137 16
138 32
139 32
140 8
141 32
142 32
143 2
144 2
145 1
146 32
147 16
148 8
149 2
150 1
151 32
152 32
153 32
154 32
155 8
156 2
157 2
158 2
159 16
160 8
161 2
162 2
163 1
164 32
165 16
166 2
167 32
168 8
169 2
170 1
171 32
172 8
173 2
174 2
175 1
176 32
177 32
178 8
179 2
180 2
181 2
182 32
183 16
184 8
185 2
186 16
187 8
188 2
189 2
190 32
191 16
192 8
193 32
194 8
195 2
196 2
197 1
198 32
199 16
200 8
201 1
202 16
203 8
204 2
205 2
206 2
207 1
208 32
209 32
210 2
211 32
212 32
213 16
214 16
215 8
216 2
217 2
218 2
219 16
220 8
221 2
222 1
223 32
224 16
225 2
226 2
227 2
DEPOT_SECTION
1
-1
EOF