SDVRP instances/custom_instances/p01_10_split0.sol
226 -1 2 4 3 144 143 141 140 142 132 134 131 130 133 -15 14 16 17 222 223 225 226 224 -18 19 23 21 22 20 194 196 195 193 192 76 77 73 78 75 74 -27 28 29 30 24 26 25 64 66 65 68 67 -35 32 36 34 31 33 86 87 90 89 85 88 91 -39 42 38 37 40 41 97 98 205 204 163 165 164 -50 51 49 52 145 148 146 149 147 186 188 185 187 100 99 101 206 203 201 202 -70 71 69 82 83 79 81 84 80 108 106 109 107 110 -72 174 171 170 172 173 180 177 175 176 179 178 -93 94 92 96 6 5 7 152 153 157 -95 135 136 169 166 168 167 209 208 207 -102 103 212 210 211 -104 105 150 151 -111 114 113 112 115 215 214 216 217 213 121 116 119 117 120 118 -123 124 122 125 -128 129 127 126 57 55 54 59 56 53 58 160 162 159 158 161 -137 139 138 62 60 61 63 191 -181 184 182 183 43 46 47 45 48 44 190 189 -197 200 199 198 155 156 154 8 13 11 9 12 10 221 218 220 219 0 





OBJ=
1785.772
BEST_KNOWN=
0.000